140478
25, 45, 100, 51, 82, 72, 33, 84, 53, 7, 32, 63, 15, 4, 12, 23, 92, 8, 97, 55, 31, 24, 66, 59, 28, 79, 77, 6, 69, 88, 40, 56, 20, 16, 64, 90, 17, 21, 22, 10, 43, 35, 75, 52, 34, 74, 102, 2, 98, 58, 76, 26, 83, 1, 87, 44, 27, 37, 39, 89, 93, 5, 65, 13, 106, 42, 99, 50, 103, 61, 14, 68, 19, 29, 30, 9, 80, 57, 47, 81, 91, 60, 96, 78, 3, 94, 70, 18, 49, 36, 71, 54, 95, 38, 101, 105, 104, 67, 41, 11, 85, 48, 73, 62, 86, 46
